c Created with the Wolfram Language : www.wolfram.com
c 
p edge 70 245
e 6 7
e 3 8
e 1 11
e 3 11
e 4 11
e 1 13
e 9 13
e 10 13
e 2 14
e 9 14
e 13 14
e 1 15
e 6 15
e 1 16
e 6 16
e 8 16
e 9 16
e 14 16
e 2 17
e 11 17
e 13 17
e 14 17
e 3 19
e 12 19
e 13 19
e 18 19
e 11 20
e 19 20
e 3 21
e 7 21
e 17 21
e 2 22
e 5 22
e 6 23
e 7 23
e 20 23
e 11 24
e 3 25
e 5 26
e 9 26
e 11 26
e 18 26
e 21 26
e 4 27
e 9 27
e 12 27
e 16 27
e 18 27
e 19 27
e 11 28
e 18 28
e 10 29
e 11 29
e 20 29
e 21 30
e 27 30
e 14 31
e 19 31
e 30 31
e 17 32
e 31 32
e 11 33
e 13 33
e 14 33
e 17 33
e 19 33
e 21 33
e 28 33
e 30 33
e 8 34
e 11 34
e 16 34
e 11 35
e 31 35
e 10 36
e 20 36
e 23 36
e 6 37
e 12 37
e 16 37
e 17 37
e 34 37
e 3 38
e 14 38
e 15 38
e 22 38
e 37 38
e 15 39
e 22 39
e 11 40
e 12 40
e 32 40
e 36 40
e 6 41
e 10 41
e 2 42
e 15 42
e 26 42
e 32 42
e 33 42
e 6 43
e 12 43
e 34 43
e 40 43
e 1 44
e 2 44
e 4 44
e 19 44
e 26 44
e 36 44
e 39 44
e 1 45
e 25 45
e 40 45
e 12 46
e 21 46
e 25 46
e 1 47
e 3 47
e 8 47
e 13 47
e 15 47
e 16 47
e 27 47
e 44 47
e 9 48
e 16 48
e 17 48
e 28 48
e 1 49
e 7 49
e 9 49
e 16 49
e 24 49
e 27 49
e 5 50
e 25 50
e 27 50
e 30 50
e 33 50
e 45 51
e 47 51
e 10 52
e 32 52
e 47 52
e 18 53
e 38 53
e 41 53
e 24 54
e 52 54
e 13 55
e 16 55
e 26 55
e 27 55
e 37 55
e 40 55
e 47 55
e 7 56
e 8 56
e 11 56
e 44 56
e 50 56
e 13 57
e 14 57
e 35 57
e 49 57
e 18 58
e 49 58
e 51 58
e 55 58
e 57 58
e 1 59
e 13 59
e 16 59
e 17 59
e 33 59
e 34 59
e 47 59
e 48 59
e 50 59
e 57 59
e 7 60
e 14 60
e 16 60
e 19 60
e 41 60
e 51 60
e 58 60
e 59 60
e 8 61
e 24 61
e 35 61
e 36 61
e 42 61
e 44 61
e 4 62
e 14 62
e 30 62
e 31 62
e 42 62
e 46 62
e 53 62
e 15 63
e 18 63
e 19 63
e 26 63
e 27 63
e 41 63
e 4 64
e 6 64
e 8 64
e 40 64
e 46 64
e 55 64
e 57 64
e 9 65
e 16 65
e 20 65
e 31 65
e 37 65
e 62 65
e 63 65
e 3 66
e 19 66
e 35 66
e 47 66
e 3 67
e 23 67
e 42 67
e 6 68
e 13 68
e 16 68
e 19 68
e 44 68
e 61 68
e 6 69
e 11 69
e 29 69
e 56 69
e 16 70
e 24 70
e 52 70
e 57 70
e 58 70
e 66 70
